CMD:
./solvers/bin/cadical --plain --no-reduce -t 1600 ./data/cnfs//oski15a01b09s/oski15a01b09s.55.cnf

c --- [ banner ] -------------------------------------------------------------
c 
c CaDiCaL SAT Solver
c Copyright (c) 2016-2024
c A. Biere, M. Fleury, N. Froleyks, K. Fazekas, F. Pollitt, T. Faller
c JKU Linz, University of Freiburg, TU Wien
c 
c Version 2.1.3 5296d3d2a9bf48c154ab2acb5e44625776d821bf
c g++ (Gentoo 12.3.1_p20230526 p2) 12.3.1 20230526 -Wall -Wextra -O3 -DNDEBUG
c Sat Aug 9 07:26:21 PDT 2025 Linux cedar2.int.cedar.computecanada.ca 5.14.0-362.24.2.el9_3.x86_64 x86_64
c 
c --- [ limit ] --------------------------------------------------------------
c 
c setting time limit to 1600 seconds real time (due to '-t 1600')
c 
c --- [ parsing input ] ------------------------------------------------------
c 
c reading DIMACS file from './data/cnfs//oski15a01b09s/oski15a01b09s.55.cnf'
c opening file to read './data/cnfs//oski15a01b09s/oski15a01b09s.55.cnf'
c found 'p cnf 18033812 51512675' header
c parsed 51512675 clauses in 9.10 seconds process time
c 
c --- [ options ] ------------------------------------------------------------
c 
c   --compact=false                (different from default 'true')
c   --decompose=false              (different from default 'true')
c   --deduplicate=false            (different from default 'true')
c   --elim=false                   (different from default 'true')
c   --probe=false                  (different from default 'true')
c   --reduce=false                 (different from default 'true')
c   --subsume=false                (different from default 'true')
c   --ternary=false                (different from default 'true')
c   --transred=false               (different from default 'true')
c   --vivify=false                 (different from default 'true')
c 
c --- [ solving ] ------------------------------------------------------------
c 
c time measured in process time since initialization
c 
c  seconds    reductions  redundant   irredundant
c          MB     restarts       trail          variables
c            level   conflicts       glue              remaining
c 
c *  9.10 7739  0 0   0    0    0  0% 0 48965397 14427673 80%
c l 11.95 7868  0 0   0    0    0  0% 0 48965397 14427673 80%
c 1 11.95 7868  0 0   0    0    0  0% 0 48965397 14427673 80%
c 
c --- [ result ] -------------------------------------------------------------
c 
s SATISFIABLE
v -1 -2 -3 -4 -5 -6 -7 -8 -9 -10 -11 -12 -13 -14 -15 -16 -17 -18 -19 -20 -21
v -22 -23 -24 -25 -26 -27 -28 -29 -30 -31 -32 -33 -34 -35 -36 -37 -38 -39 -40
v -41 -42 -43 -44 -45 -46 -47 -48 -49 -50 -51 -52 -53 -54 -55 -56 -57 -58 -59
v -60 -61 -62 -63 -64 -65 -66 -67 -68 -69 -70 -71 -72 -73 -74 -75 -76 -77 -78
v -79 -80 -81 -82 -83 -84 -85 -86 -87 -88 -89 -90 -91 -92 -93 -94 -95 -96 -97
v -98 -99 -100 -101 -102 -103 -104 -105 -106 -107 -108 -109 -110 -111 -112
v -113 -114 -115 -116 -117 -118 -119 -120 -121 -122 -123 -124 -125 -126 -127
v -128 -129 -130 -131 -132 -133 -134 -135 -136 -137 -138 -139 -140 -141 -142
v -143 -144 -145 -146 -147 -148 -149 -150 -151 -152 -153 -154 -155 -156 -157
v -158 -159 -160 -161 -162 -163 -164 -165 -166 -167 -168 -169 -170 -171 -172
v -173 -174 -175 -176 -177 -178 -179 -180 -181 -182 -183 -184 -185 -186 -187
v -188 -189 -190 -191 -192 -193 -194 -195 -196 -197 -198 -199 -200 -201 -202
v -203 -204 -205 -206 -207 -208 -209 -210 -211 -212 -213 -214 -215 -216 -217
v -218 -219 -220 -221 -222 -223 -224 -225 -226 -227 -228 -229 -230 -231 -232
v -233 -234 -235 -236 -237 -238 -239 -240 -241 -242 -243 -244 -245 -246 -247
v -248 -249 -250 -251 -252 -253 -254 -255 -256 -257 -258 -259 -260 -261 -262
v -263 -264 -265 -266 -267 -268 -269 -270 -271 -272 -273 -274 -275 -276 -277
v -278 -279 -280 -281 -282 -283 -284 -285 -286 -287 -288 -289 -290 -291 -292
v -293 -294 -295 -296 -297 -298 -299 -300 -301 -302 -303 -304 -305 -306 -307
v -308 -309 -310 -311 -312 -313 -314 -315 -316 -317 -318 -319 -320 -321 -322
v -323 -324 -325 -326 -327 -328 -329 -330 -331 -332 -333 -334 -335 -336 -337
v -338 -339 -340 -341 -342 -343 -344 -345 -346 -347 -348 -349 -350 -351 -352
v -353 -354 -355 -356 -357 -358 -359 -360 -361 -362 -363 -364 -365 -366 -367
v -368 -369 -370 -371 -372 -373 -374 -375 -376 -377 -378 -379 -380 -381 -382
v -383 -384 -385 -386 -387 -388 -389 -390 -391 -392 -393 -394 -395 -396 -397
v -398 -399 -400 -401 -402 -403 -404 -405 -406 -407 -408 -409 -410 -411 -412
v -413 -414 -415 -416 -417 -418 -419 -420 -421 -422 -423 -424 -425 -426 -427
v -428 -429 -430 -431 -432 -433 -434 -435 -436 -437 -438 -439 -440 -441 -442
v -443 -444 -445 -446 -447 -448 -449 -450 -451 -452 -453 -454 -455 -456 -457
v -458 -459 -460 -461 -462 -463 -464 -465 -466 -467 -468 -469 -470 -471 -472
v -473 -474 -475 -476 -477 -478 -479 -480 -481 -482 -483 -484 -485 -486 -487
v -488 -489 -490 -491 -492 -493 -494 -495 -496 -497 -498 -499 -500 -501 -502
v -503 -504 -505 -506 -507 -508 -509 -510 -511 -512 -513 -514 -515 -516 -517
v -518 -519 -520 -521 -522 -523 -524 -525 -526 -527 -528 -529 -530 -531 -532
v -533 -534 -535 -536 -537 -538 -539 -540 -541 -542 -543 -544 -545 -546 -547
v -548 -549 -550 -551 -552 -553 -554 -555 -556 -557 -558 -559 -560 -561 -562
v -563 -564 -565 -566 -567 -568 -569 -570 -571 -572 -573 -574 -575 -576 -577
v -578 -579 -580 -581 -582 -583 -584 -585 -586 -587 -588 -589 -590 -591 -592
v -593 -594 -595 -596 -597 -598 -599 -600 -601 -602 -603 -604 -605 -606 -607
v -608 -609 -610 -611 -612 -613 -614 -615 -616 -617 -618 -619 -620 -621 -622
v -623 -624 -625 -626 -627 -628 -629 -630 -631 -632 -633 -634 -635 -636 -637
v -638 -639 -640 -641 -642 -643 -644 -645 -646 -647 -648 -649 -650 -651 -652
v -653 -654 -655 -656 -657 -658 -659 -660 -661 -662 -663 -664 -665 -666 -667
v -668 -669 -670 -671 -672 -673 -674 -675 -676 -677 -678 -679 -680 -681 -682
v -683 -684 -685 -686 -687 -688 -689 -690 -691 -692 -693 -694 -695 -696 -697
v -698 -699 -700 -701 -702 -703 -704 -705 -706 -707 -708 -709 -710 -711 -712
v -713 -714 -715 -716 -717 -718 -719 -720 -721 -722 -723 -724 -725 -726 -727
... skipped 2266801 lines ...
v 18033323 -18033324 -18033325 -18033326 -18033327 18033328 18033329 -18033330
v -18033331 -18033332 -18033333 18033334 18033335 -18033336 -18033337
v -18033338 -18033339 18033340 18033341 -18033342 -18033343 -18033344
v -18033345 18033346 18033347 -18033348 -18033349 -18033350 -18033351 18033352
v 18033353 -18033354 -18033355 -18033356 -18033357 18033358 18033359 -18033360
v -18033361 -18033362 -18033363 18033364 18033365 -18033366 -18033367
v -18033368 -18033369 18033370 18033371 -18033372 -18033373 -18033374
v -18033375 18033376 18033377 -18033378 -18033379 -18033380 -18033381 18033382
v 18033383 -18033384 -18033385 -18033386 -18033387 18033388 18033389 -18033390
v -18033391 -18033392 -18033393 18033394 18033395 -18033396 -18033397
v -18033398 -18033399 18033400 18033401 -18033402 -18033403 -18033404
v -18033405 18033406 18033407 -18033408 -18033409 -18033410 -18033411 18033412
v 18033413 -18033414 -18033415 -18033416 -18033417 18033418 18033419 -18033420
v -18033421 18033422 -18033423 18033424 18033425 -18033426 -18033427 18033428
v -18033429 18033430 18033431 -18033432 -18033433 18033434 -18033435 18033436
v 18033437 -18033438 -18033439 18033440 -18033441 18033442 18033443 -18033444
v -18033445 18033446 -18033447 18033448 18033449 -18033450 -18033451 18033452
v -18033453 18033454 18033455 -18033456 -18033457 18033458 -18033459 18033460
v 18033461 -18033462 -18033463 18033464 -18033465 18033466 18033467 -18033468
v -18033469 18033470 -18033471 18033472 18033473 -18033474 -18033475 18033476
v -18033477 18033478 18033479 -18033480 -18033481 18033482 -18033483 18033484
v 18033485 -18033486 -18033487 18033488 -18033489 18033490 18033491 -18033492
v -18033493 18033494 -18033495 18033496 18033497 -18033498 -18033499 18033500
v -18033501 18033502 18033503 -18033504 -18033505 18033506 -18033507 18033508
v 18033509 -18033510 -18033511 18033512 -18033513 18033514 18033515 -18033516
v -18033517 18033518 -18033519 18033520 18033521 -18033522 -18033523 18033524
v -18033525 18033526 18033527 -18033528 -18033529 18033530 -18033531 18033532
v 18033533 -18033534 -18033535 18033536 -18033537 18033538 18033539 -18033540
v -18033541 18033542 -18033543 18033544 18033545 -18033546 -18033547 18033548
v -18033549 18033550 18033551 -18033552 -18033553 18033554 -18033555 18033556
v 18033557 -18033558 -18033559 18033560 -18033561 18033562 18033563 -18033564
v -18033565 18033566 -18033567 18033568 18033569 -18033570 -18033571 18033572
v -18033573 18033574 18033575 -18033576 -18033577 18033578 -18033579 18033580
v 18033581 -18033582 -18033583 18033584 -18033585 18033586 18033587 -18033588
v -18033589 18033590 -18033591 18033592 18033593 -18033594 -18033595 18033596
v -18033597 18033598 18033599 -18033600 -18033601 18033602 -18033603 18033604
v 18033605 -18033606 -18033607 18033608 -18033609 18033610 18033611 -18033612
v -18033613 18033614 -18033615 18033616 18033617 -18033618 -18033619 18033620
v -18033621 18033622 18033623 -18033624 -18033625 18033626 -18033627 18033628
v 18033629 -18033630 -18033631 18033632 -18033633 18033634 18033635 -18033636
v -18033637 -18033638 -18033639 18033640 18033641 -18033642 -18033643
v -18033644 -18033645 18033646 18033647 -18033648 -18033649 -18033650
v -18033651 18033652 18033653 -18033654 -18033655 -18033656 -18033657 18033658
v 18033659 -18033660 -18033661 -18033662 -18033663 18033664 18033665 -18033666
v -18033667 -18033668 -18033669 -18033670 -18033671 -18033672 18033673
v -18033674 -18033675 18033676 -18033677 -18033678 18033679 -18033680
v -18033681 18033682 -18033683 -18033684 18033685 -18033686 -18033687 18033688
v -18033689 -18033690 18033691 -18033692 -18033693 18033694 -18033695
v -18033696 18033697 -18033698 -18033699 18033700 -18033701 -18033702 18033703
v -18033704 -18033705 18033706 -18033707 -18033708 18033709 -18033710
v -18033711 18033712 -18033713 -18033714 18033715 -18033716 -18033717 18033718
v -18033719 -18033720 18033721 -18033722 18033723 18033724 -18033725 -18033726
v 18033727 -18033728 -18033729 18033730 -18033731 -18033732 18033733 -18033734
v -18033735 18033736 -18033737 -18033738 18033739 -18033740 -18033741 18033742
v -18033743 -18033744 18033745 -18033746 -18033747 18033748 -18033749
v -18033750 18033751 -18033752 -18033753 18033754 -18033755 -18033756 18033757
v -18033758 -18033759 18033760 -18033761 -18033762 18033763 -18033764
v -18033765 18033766 -18033767 -18033768 18033769 -18033770 -18033771 18033772
v -18033773 18033774 -18033775 18033776 18033777 -18033778 -18033779 -18033780
v -18033781 18033782 -18033783 18033784 18033785 -18033786 -18033787 -18033788
v -18033789 -18033790 -18033791 18033792 18033793 -18033794 -18033795
v -18033796 -18033797 -18033798 -18033799 -18033800 18033801 -18033802
v -18033803 18033804 -18033805 18033806 -18033807 -18033808 18033809 -18033810
v 18033811 -18033812 0
c 
c --- [ run-time profiling ] -------------------------------------------------
c 
c process time taken by individual solving procedures
c (percentage relative to process time for solving)
c 
c         9.10  318.59% parse
c         2.86  100.00% search
c         2.86  100.00% lucky
c         0.00    0.00% simplify
c   =================================
c         2.86   22.30% solve
c 
c last line shows process time for solving
c (percentage relative to total process time)
c 
c --- [ statistics ] ---------------------------------------------------------
c 
c fixed:                   3606139        20.00 %  of all variables
c lucky:                         1       100.00 %  of tried
c minimized:                     0         0.00 %  learned literals
c shrunken:                      0         0.00 %  learned literals
c minishrunken:                  0         0.00 %  learned literals
c propagations:            3606139         1.26 M  per second
c 
c seconds are measured in process time for solving
c 
c --- [ resources ] ----------------------------------------------------------
c 
c total process time since initialization:        12.80    seconds
c total real time since initialization:           13.03    seconds
c maximum resident set size of process:         7924.38    MB
c 
c --- [ shutting down ] ------------------------------------------------------
c 
c exit 10
